# ORCA xyz input file 
# 
!TPSS def2-TZVP CPCM(WATER) LARGEPRINT 
%tddft
    NRoots 30
    MaxDim 5
end
* xyz 0 1
  O           3.15983138953320      1.10365624534325     -3.32053321023953
  C           2.95488945184204     -0.14877617936561     -2.87183281712137
  O           2.45899448369741     -0.98518677393898     -3.60661998306153
  C           3.35464118001690     -0.43293582058314     -1.42223017282174
  C           4.81562941437359     -0.15793496831285     -1.10614889951295
  C           5.70119792986331     -1.23302207996241     -0.97314534028667
  C           7.05255335981630     -1.03331253755509     -0.68627830344674
  C           7.53332274802987      0.26447463912801     -0.51458458228201
  C           6.66622073743947      1.35177651440864     -0.62791616657047
  C           5.31861244951077      1.14663528191423     -0.92901187008575
  N           4.39311446435191      2.24510068728966     -1.08395596321419
  C           4.84699873200875      3.58719236779217     -1.06872934462093
  C           5.62880078927621      4.12846533876148     -2.10664045865780
  Cl          6.08790464312317      3.11741593467140     -3.45423726803431
  C           6.03164256086772      5.46131146518221     -2.11154335642014
  C           5.62980159826051      6.30609306377385     -1.07844666507515
  C           4.83158148704091      5.81937523831397     -0.04552206571780
  C           4.46142145717195      4.47768493945233     -0.04807816898256
  Cl          3.46782193886762      3.87806776306586      1.26376196448421
  H           3.57969366726985      1.66294297395171     -2.59979488381484
  H           3.13502414943770     -1.48468599215350     -1.23404676221133
  H           2.69076542951836      0.16150081700586     -0.77980986942421
  H           5.31694823843455     -2.24242998976292     -1.09882351460291
  H           7.72005925289990     -1.88511586872320     -0.59391705838365
  H           8.58028245868460      0.43791166221745     -0.28215551360787
  H           7.03707216951308      2.36115637142046     -0.47657071967633
  H           3.60405797298030      2.14183563555744     -0.44116559871518
  H           6.63917632037854      5.83057762261142     -2.93049651894968
  H           5.93312401706804      7.34819574464090     -1.08314791584442
  H           4.50515550872338      6.46522990385535      0.76211102689789
*
