# ORCA xyz input file 
# 
!B3LYP STO-3G CPCM(WATER) LARGEPRINT 
%tddft
    NRoots 30
    MaxDim 5
end
* xyz 0 1
  H           1.10432629265095     -0.25017660286262      0.41628034165046
  C           2.12049273522143     -0.12017104397368     -0.00666800555067
  C           2.00146543473240      0.64888162935646     -1.36078929704039
  C           2.93344614890558      0.77111726256053      1.04178516999629
  O           3.40095074869912      0.08634553457597      2.19584847406171
  O           3.14802216424400      1.99743325340103      0.92460113704324
  C           2.75073037292692     -1.52534834990381     -0.17201966900941
  C           2.00688395881983     -2.68442284322008      0.15140676788530
  C           2.56312813589325     -3.97716215043294     -0.01162080100796
  C           3.87878835292123     -4.10394145931178     -0.52123905760200
  C           4.63331206946532     -2.95683473887177     -0.83265551636494
  C           4.07509633091075     -1.67590132128676     -0.65824850487245
  C           1.75684814764124     -5.26465809349127      0.26834817990541
  O           1.95672460777164     -6.31064004361528     -0.41107310789652
  C           0.70605880272086     -5.24361620147131      1.39760284740693
  C           0.83819685089859     -4.42676392589929      2.54808419998504
  C          -0.12053911561354     -4.49083777540007      3.57818637429200
  C          -1.22082550491380     -5.36639701157543      3.46987070872111
  C          -1.35545410168228     -6.19120109549374      2.33266334583007
  C          -0.39319678894926     -6.13536600266136      1.30797152695131
  H           1.60028201213567      1.65787429786076     -1.17790547398087
  H           1.32450277129726      0.11317418982591     -2.04396560715308
  H           2.98672366499011      0.74558026371549     -1.84151023470104
  H           3.13163022557955     -0.88950810693262      2.03162852829503
  H           0.97642272523187     -2.57762490042140      0.51794853288446
  H           4.30142677179324     -5.10885334753329     -0.66463627782408
  H           5.65851705115186     -3.05996800537302     -1.21496365432871
  H           4.66895116802966     -0.78392096802544     -0.90335533785725
  H           1.70038457591794     -3.75287674932694      2.64401441003324
  H          -0.00795733195759     -3.85746199230817      4.46915991235257
  H          -1.96970346829680     -5.41036379268551      4.27319285566520
  H          -2.20882092260917     -6.87856425353842      2.24903239469741
  H          -0.48064488652785     -6.78139565568010      0.42226483753255
*
