# ORCA xyz input file 
# 
!PBE STO-3G CPCM(WATER) LARGEPRINT 
%tddft
    NRoots 30
    MaxDim 5
end
* xyz 0 1
  C           2.85515368202405     -0.04333526929808      1.22428712210975
  C           2.51222489085751     -1.18691578724313      0.22073713109497
  C           0.97901914879214     -1.47878775131981      0.21465578346646
  C           2.99932190768488     -0.84112034983109     -1.23773738355491
  C           4.53074389603915     -0.70566329294562     -1.34676027742580
  C           5.36322662638200     -1.85787573480722     -1.31900237924103
  C           6.76654591208090     -1.74149941635969     -1.40670265529811
  C           7.39007994512164     -0.46637401861835     -1.52398228887113
  C           6.55495941487774      0.68781404981224     -1.55225374360127
  C           5.15177398252431      0.56742796661121     -1.46361876320446
  C           8.92806167339356     -0.35636184168356     -1.61992046775607
  C           9.42405392466020      0.48521643117833     -2.83760005822717
  C           9.57752238526280      0.23667692409437     -0.27059000800166
  O           8.73535185347606      0.18242151379177      0.87781371323100
  O          10.74847457366654      0.69381594441910     -0.18182577094916
  H           2.53354042604287     -0.31909040187700      2.24616593103412
  H           2.33878844570192      0.89195806397198      0.93667252631681
  H           3.94402708103618      0.14976597557989      1.23910987367432
  H           3.04332115593712     -2.10964163279812      0.54475758418031
  H           0.41585223133359     -0.58506762156160     -0.11433996965096
  H           0.63483197299146     -1.75326769198695      1.22965929256884
  H           0.74359419025824     -2.31277486240804     -0.47304241635170
  H           2.52096779949612      0.10509510898231     -1.56366426445223
  H           2.65660300235757     -1.64975872139454     -1.91786043398450
  H           4.90285608456656     -2.85865673080872     -1.23437071715338
  H           7.39572646172304     -2.64986841477453     -1.38933740815147
  H           7.01126096718682      1.68975675752493     -1.64266201192062
  H           4.52360223275197      1.47584829450121     -1.49101839050612
  H           9.33571905321421     -1.38871065571794     -1.71876075526953
  H           8.98354041449126      1.49918723482310     -2.82440638090815
  H           9.14873374516803     -0.00932508162711     -3.78793888372692
  H          10.52562701991555      0.58109861227963     -2.78804883491526
  H           7.85149389898387     -0.19347760050897      0.47567530544504
*
