# ORCA xyz input file 
# 
!B3LYP def2-TZVP CPCM(WATER) LARGEPRINT 
%tddft
    NRoots 30
    MaxDim 5
end
* xyz 0 1
  O           2.17175092911229     -0.93014937411965      0.61059113491634
  C           2.73860395263874     -2.02511434780705      0.06706670562277
  O           2.56289827948633     -3.13559326465748      0.50942029745930
  C           3.60812513666868     -1.68268848770292     -1.12354701457045
  C           4.90063830286240     -0.99369001094653     -0.72877728121054
  C           6.04317365652346     -1.76430634270344     -0.51246462426806
  C           7.26599630174286     -1.18464711150233     -0.19552850714029
  C           7.35086800399277      0.19938958852863     -0.08643411403538
  C           6.22378543088537      0.98562056166708     -0.28283654374279
  C           4.99165415975268      0.40655173095250     -0.60297722900088
  N           3.83655749691488      1.19386004481249     -0.80239200088916
  C           3.85966883994893      2.57854402406098     -0.98470457546133
  C           4.46222288469187      3.18241070886907     -2.10358494003097
  Cl          5.20307445102250      2.18572320685312     -3.33295359054134
  C           4.45737429326766      4.55615412708244     -2.29611801845383
  C           3.80771349496549      5.37887494227723     -1.38526317241815
  C           3.16724895820479      4.82377936889292     -0.28589618873126
  C           3.20816961974969      3.45087171683406     -0.09394328010774
  Cl          2.41021540215530      2.78603758294654      1.31583280891625
  H           1.65074508207480     -1.18907846235607      1.39049644936097
  H           3.03161798667845     -1.04330987359722     -1.79610242502270
  H           3.83169071682340     -2.61684610834389     -1.63405708219300
  H           5.97004995613582     -2.84084932245942     -0.61577896606505
  H           8.13989267699791     -1.80514907822820     -0.04317617146368
  H           8.29340400048125      0.67238099958504      0.16117600123642
  H           6.29505210200269      2.06047099257863     -0.17772190278309
  H           3.02882303940602      0.86183102545387     -0.29208027041799
  H           4.94097787487389      4.97163282083698     -3.16949424601666
  H           3.79198841287578      6.44981042180865     -1.53812405832076
  H           2.64994855706318      5.44833792038394      0.42930280537310
*
