# ORCA input file
# 
!B3LYP def2-TZVP Opt CPCM(WATER)
* xyz 0 1
   O        2.14551        -0.60885         0.52181
   C        2.63420        -1.80737         0.13543
   O        2.17162        -2.83239         0.62109
   C        3.65654        -1.73250        -0.95851
   C        4.96102        -1.03926        -0.61508
   C        6.12539        -1.84007        -0.61083
   C        7.39004        -1.27991        -0.47544
   C        7.51670         0.09058        -0.30438
   C        6.37165         0.89145        -0.25876
   C        5.08221         0.35792        -0.43094
   N        3.94879         1.20390        -0.53378
   C        3.84026         2.58058        -0.86585
   C        4.60199         3.19619        -1.88448
  Cl        5.54000         2.29292        -3.03255
   C        4.53823         4.57834        -2.11797
   C        3.67875         5.38423        -1.37796
   C        2.87476         4.80277        -0.40530
   C        2.95948         3.42647        -0.14720
  Cl        1.91108         2.79105         1.07992
   H        1.46203        -0.84108         1.18918
   H        3.20949        -1.27698        -1.84977
   H        3.86501        -2.77055        -1.24335
   H        6.05372        -2.91564        -0.76619
   H        8.27654        -1.91040        -0.52459
   H        8.50112         0.54295        -0.23421
   H        6.50961         1.96135        -0.11755
   H        3.12683         0.82883        -0.05232
   H        5.14146         5.02526        -2.90632
   H        3.62186         6.44998        -1.58160
   H        2.17804         5.43109         0.14743
*
