# ORCA xyz input file 
# 
!PBE 6-311+G** CPCM(WATER) LARGEPRINT 
%tddft
    NRoots 30
    MaxDim 5
end
* xyz 0 1
  C           2.84125173025383     -0.17512373061220      1.25685759373182
  C           2.51282390933746     -1.20460825152595      0.16696123537766
  C           1.00282863379853     -1.47298490672157      0.10057076093026
  C           3.03697308758645     -0.76144087941155     -1.22352795951384
  C           4.54117373495952     -0.63396929926750     -1.31162225812376
  C           5.35966721374096     -1.77831006053970     -1.30187671549594
  C           6.75396482294250     -1.67166865645137     -1.36521285378572
  C           7.37852040445713     -0.41412472498465     -1.44570992359080
  C           6.56401539698901      0.73358297977974     -1.46006014905154
  C           5.17094690220777      0.62217540516160     -1.39196653506198
  C           8.89516487111874     -0.30187752990379     -1.54837931959582
  C           9.36620158141475      0.25938541624638     -2.89818824210284
  C           9.50318015489270      0.47316075150553     -0.37282177026081
  O           8.97749892290119      0.21250788961151      0.85375886909920
  O          10.43520570771254      1.25496240699384     -0.45966010747045
  H           2.47806786272657     -0.51540581982881      2.23985033523770
  H           2.35761208546862      0.79204646246736      1.03458298227552
  H           3.92530604795353      0.00169730110924      1.33861041086548
  H           3.01957364874148     -2.15383483194235      0.42378863162993
  H           0.45529957787749     -0.55391267132583     -0.17106733154877
  H           0.61911824944050     -1.81685600983046      1.07452006705050
  H           0.76459231413816     -2.24265011634143     -0.65138975667958
  H           2.56823989231292      0.20337956613931     -1.48590199838459
  H           2.69391126148571     -1.49900986758330     -1.97045046041378
  H           4.89948222673591     -2.76979250157181     -1.24931030374484
  H           7.36840209354884     -2.57716845213172     -1.36023847038877
  H           7.02105785960138      1.72592888518928     -1.52478136517032
  H           4.55748016322766      1.52808414514151     -1.40442511231587
  H           9.30635571332800     -1.32345471219386     -1.43402893832764
  H           8.99550433986333      1.28384109755831     -3.05204186453517
  H           8.98488013362610     -0.37318456172741     -3.71267120444939
  H          10.46377860241363      0.27658763065569     -2.95225995527233
  H           8.20852085319697     -0.38945235366405      0.76218170908648
*
