# ORCA xyz input file 
# 
!B3LYP def2-TZVP CPCM(WATER) LARGEPRINT 
%tddft
    NRoots 30
    MaxDim 5
end
* xyz 0 1
  H           1.21714981438510     -0.26990898875398      0.53976028488327
  C           2.17340400320263     -0.15222884369987      0.02195269921817
  C           1.92214180565144      0.53183115742492     -1.32494436015964
  C           3.05041106019526      0.70761363637273      0.92998556537618
  O           3.06545191437804      0.37175073005369      2.23515961839350
  O           3.72109174963351      1.64041414245941      0.56084431183496
  C           2.78138051803741     -1.54233542698816     -0.13547992711205
  C           2.03543919117417     -2.67445110466209      0.18688049850999
  C           2.55606486146275     -3.95861516699311     -0.00015841312497
  C           3.84916084601755     -4.10499360241988     -0.51052892240493
  C           4.60883577332849     -2.98286134378116     -0.80871721873520
  C           4.07771738085606     -1.70952900667825     -0.62798706422773
  C           1.74374934127068     -5.18690666452548      0.26048387943361
  O           1.90764866873127     -6.18243533409994     -0.43391800294125
  C           0.73619098967183     -5.20222265790567      1.36288174304882
  C           0.92112401353863     -4.48510702897905      2.54978635091634
  C          -0.00588016781980     -4.58574655576605      3.58143627939826
  C          -1.13567940496265     -5.38346288729849      3.42913186945619
  C          -1.33061692137364     -6.09677139361218      2.24728782431607
  C          -0.39440722448283     -6.01709928782533      1.22659540411270
  H           1.45713118341829      1.50769381743488     -1.17957931029826
  H           1.25409294475191     -0.08421258902438     -1.92789423567431
  H           2.85256866682442      0.67344420549542     -1.87489005236360
  H           2.47886093192944     -0.37764949169735      2.42133006084445
  H           1.02739841981588     -2.55118944711356      0.56166667251626
  H           4.25245205737650     -5.09795372716514     -0.65950980775012
  H           5.61733633490897     -3.09629528536918     -1.18626494552447
  H           4.67887941867737     -0.84226578094690     -0.87489187715811
  H           1.80016163109323     -3.86814699516620      2.68039643660993
  H           0.15437710999482     -4.04006436215201      4.50288528258358
  H          -1.86269859414499     -5.45147885498343      4.22910286778436
  H          -2.21082687402859     -6.71578110265938      2.12572584195969
  H          -0.53394144351324     -6.57660475897471      0.31071064627829
*
