# ORCA xyz input file 
# 
!B3LYP 6-311+G** CPCM(WATER) LARGEPRINT 
%tddft
    NRoots 30
    MaxDim 5
end
* xyz 0 1
  O           2.17276607958227     -0.91615768781041      0.58819029283734
  C           2.73110318063240     -2.02394386130283      0.05478368637464
  O           2.53700739866208     -3.13128983914499      0.50418662524281
  C           3.61450695915909     -1.69648291406097     -1.13239014767392
  C           4.90466270293884     -1.00045966739751     -0.72968955985518
  C           6.05415335795800     -1.76666646644584     -0.51181282964625
  C           7.27506544676409     -1.17726604704150     -0.18887792085495
  C           7.35054331517430      0.21053348245917     -0.07507888345977
  C           6.21566929317605      0.99194620563943     -0.27260872622621
  C           4.98678496284761      0.40298123875371     -0.60025326070050
  N           3.82195049424731      1.18418194834521     -0.80445918964215
  C           3.84978226644100      2.57309940873299     -0.98362440822786
  C           4.44371734845600      3.17506412576183     -2.11146538860511
  Cl          5.16397004349883      2.16201627039581     -3.35806343611962
  C           4.44676263084398      4.55067470306536     -2.30778828671625
  C           3.81409224754930      5.38021835192972     -1.38531874739155
  C           3.18458487468199      4.82961099752772     -0.27289996387578
  C           3.21915089000249      3.45359739837138     -0.08210555052953
  Cl          2.43510842961074      2.79059315284517      1.35213243180469
  H           1.64481174529724     -1.15951793776656      1.36756900218484
  H           3.04413508201777     -1.06331121200929     -1.81848540567357
  H           3.84351458865644     -2.63712190038852     -1.63142680110618
  H           5.98881510647082     -2.84479128691010     -0.61883498884413
  H           8.15399148881687     -1.79300840184724     -0.03545424900983
  H           8.29027801966735      0.68986388836246      0.17729568212261
  H           6.27940859360558      2.06847171643942     -0.16400531189071
  H           3.01903769946763      0.85176255141814     -0.28247712471488
  H           4.92182418368265      4.96385061942906     -3.18860522760317
  H           3.80394151682503      6.45254916850304     -1.53888819223138
  H           2.68279005326615      5.45986199414613      0.45038588003159
*
