# ORCA xyz input file 
# 
!PBE def2-TZVP CPCM(WATER) LARGEPRINT 
%tddft
    NRoots 30
    MaxDim 5
end
* xyz 0 1
  O           3.16807750847605      1.11293056666586     -3.31800126463134
  C           2.95283209792834     -0.13797318119707     -2.87448908856617
  O           2.44139354826420     -0.96823347701317     -3.60800082794495
  C           3.35880809392332     -0.43574091710419     -1.43031237743782
  C           4.81425610156518     -0.16005489941847     -1.10612911241602
  C           5.70166483540565     -1.23499559052780     -0.96904885355542
  C           7.05300959136912     -1.03559921198278     -0.67692060862992
  C           7.53327821865505      0.26353288503744     -0.50413268495357
  C           6.66565301463860      1.35109685831684     -0.62229998506597
  C           5.31672828865987      1.14778529722933     -0.92837169239318
  N           4.39676150252063      2.24406653420443     -1.08593364811491
  C           4.84630237127436      3.58509851732337     -1.07280763340570
  C           5.62320635284826      4.12836177545668     -2.11739522760691
  Cl          6.07412144069584      3.12431624865271     -3.46624167877141
  C           6.02440677175949      5.46354832448326     -2.11986907387455
  C           5.62817659032301      6.30638184387739     -1.08169785624934
  C           4.83615714695705      5.81675795577244     -0.04400554149826
  C           4.46505509428880      4.47352856057171     -0.04487477655611
  Cl          3.48391400101064      3.87312553612735      1.26852758543088
  H           3.59406120678215      1.66790667181349     -2.59192379277402
  H           3.13951648426106     -1.49471840004827     -1.25236543140714
  H           2.68514879796590      0.14591632616843     -0.77687238025986
  H           5.31616259596773     -2.24917714740794     -1.09672026677074
  H           7.72310067308466     -1.89132345089105     -0.58139129650217
  H           8.58411717386216      0.43818651934725     -0.26680115289114
  H           7.03837301659690      2.36500793392459     -0.46915025006613
  H           3.59701123657015      2.13841668662924     -0.45144112474647
  H           6.62947283160755      5.83726528473774     -2.94559327710232
  H           5.93228043231755      7.35354193033935     -1.08605538639588
  H           4.51329298042064      6.46424401891181      0.77080870515658
*
