# ORCA xyz input file 
# 
!B3LYP STO-3G CPCM(WATER) LARGEPRINT 
%tddft
    NRoots 30
    MaxDim 5
end
* xyz 0 1
  O           2.00798592951522     -0.41512231730422      0.12116186085562
  C           2.65974529908328     -1.70108097647372      0.16964933214235
  O           2.43062830544208     -2.52108973827636      1.07866504373242
  C           3.64588292368528     -1.80639590065148     -1.04818761065554
  C           4.99316535195925     -1.11139876249220     -0.75130684369665
  C           6.15981456819165     -1.88561157265319     -0.57856172033721
  C           7.40999307794834     -1.28473997041964     -0.33537806114376
  C           7.49802072736785      0.11903517686630     -0.24634130878258
  C           6.35064178640400      0.91450683571758     -0.39521432288341
  C           5.08497948369422      0.31851197972700     -0.65677677770052
  N           3.87557633198320      1.08981459115956     -0.78241364924690
  C           3.85518026596371      2.50716206570178     -0.92484155554990
  C           4.55298118679875      3.21398754397141     -1.96393162841236
  Cl          5.52248635908052      2.28456445741787     -3.18391125016279
  C           4.47940865865204      4.61150927740157     -2.12214760259229
  C           3.66253052922586      5.37317123328651     -1.26302220176449
  C           2.92120510375150      4.73101203355060     -0.25147296587502
  C           3.02965215173998      3.33695198904521     -0.09203410290315
  Cl          2.08357043612809      2.55685676124151      1.24781698111066
  H           1.51222512917164     -0.32214565428118      1.01086226319639
  H           3.15462346476622     -1.34034172120280     -1.92286943236519
  H           3.81673575877774     -2.87539980896202     -1.25784438654439
  H           6.08351978436176     -2.97963528177605     -0.65124463372424
  H           8.30617977472952     -1.90675105290527     -0.21436455622559
  H           8.46563988010583      0.59945613854205     -0.04507475259603
  H           6.41801845565513      2.00467576112494     -0.29508842793953
  H           3.00365059208987      0.60961057670037     -0.34732044314423
  H           5.04256541239079      5.09240162579339     -2.93375384652172
  H           3.59483482641841      6.46182578551415     -1.38906015110021
  H           2.27248844491817      5.30551892463628      0.42393675083025
*
