# ORCA input file
# 
!TPSS 6-311+G** Opt CPCM(WATER)
* xyz 0 1
   H        2.19682        -0.91154         0.64044
   C        2.08274        -0.07230        -0.06151
   C        0.61781         0.37039        -0.01313
   C        2.95733         1.04661         0.51400
   O        4.28094         0.77780         0.52831
   O        2.52215         2.08691         0.98966
   C        2.46394        -0.56230        -1.45986
   C        2.32706        -1.92842        -1.78584
   C        2.67594        -2.40638        -3.06924
   C        3.08558        -1.51093        -4.05073
   C        3.20379        -0.15525        -3.74761
   C        2.90509         0.31130        -2.46255
   C        2.63455        -3.85377        -3.42227
   O        2.31712        -4.18658        -4.56116
   C        3.03282        -4.89946        -2.43983
   C        3.93140        -4.62386        -1.40002
   C        4.30356        -5.63104        -0.51010
   C        3.79973        -6.92143        -0.66808
   C        2.92349        -7.20672        -1.71455
   C        2.54088        -6.19946        -2.60247
   H        0.34865         0.71015         0.99629
   H       -0.06373        -0.44391        -0.27769
   H        0.43042         1.20885        -0.69604
   H        4.52517        -0.07595         0.12336
   H        1.94296        -2.62253        -1.04434
   H        3.32225        -1.86705        -5.05606
   H        3.53216         0.53830        -4.52112
   H        3.01182         1.37929        -2.26715
   H        4.36991        -3.63997        -1.27773
   H        4.99900        -5.41307         0.29648
   H        4.10396        -7.70787         0.01569
   H        2.54331        -8.21744        -1.84315
   H        1.86720        -6.43272        -3.42364
*
