# ORCA xyz input file 
# 
!PBE 6-311+G** CPCM(WATER) LARGEPRINT 
%tddft
    NRoots 30
    MaxDim 5
end
* xyz 0 1
  O           3.13449306437797      1.13594836402517     -3.30541759501886
  C           2.94942079623489     -0.12967655191319     -2.88527796543116
  O           2.45330272370087     -0.95776911172561     -3.63649415010396
  C           3.36176592304314     -0.44775353035195     -1.44545713897301
  C           4.81818095575251     -0.16546370114224     -1.11579631691725
  C           5.71351774776737     -1.23830192658714     -0.97959774871656
  C           7.06370825335326     -1.03017344221250     -0.67275528635468
  C           7.53385937249605      0.27360892853324     -0.48148564076140
  C           6.65762028279944      1.35874016208014     -0.59790484383905
  C           5.31126122192539      1.14621823271431     -0.92106400356507
  N           4.37917933364416      2.23982903923176     -1.08137296635607
  C           4.83505747716729      3.58341427008515     -1.07198502715750
  C           5.61035848057048      4.12038381952783     -2.12451642644323
  Cl          6.04802017966937      3.10026855873623     -3.48239769342080
  C           6.02168130621629      5.45462649496396     -2.13618525180578
  C           5.63970299024930      6.30390122741126     -1.09351578666364
  C           4.85315125564650      5.82135853977717     -0.04416410824018
  C           4.47255458256992      4.47841428236911     -0.03990646550289
  Cl          3.49517081304724      3.88399748899232      1.29595560866469
  H           3.56098498913008      1.68316753594652     -2.57419849605713
  H           3.15109727500920     -1.51219672919313     -1.28351753581799
  H           2.68427606249629      0.11775687902614     -0.77997825678619
  H           5.33660311485073     -2.25526996246674     -1.11934202630117
  H           7.74016902761019     -1.88254872724396     -0.57907795935729
  H           8.58209296507952      0.45344402122234     -0.23173380773326
  H           7.02140073089100      2.37527167975372     -0.43180492899099
  H           3.58921340445661      2.13438507539266     -0.43263323252003
  H           6.62325088871642      5.82355952024925     -2.96794360940837
  H           5.95136651692314      7.34991373414509     -1.10302018903850
  H           4.54387826460527      6.47414582865308      0.77307884861737
*
