# ORCA xyz input file 
# 
!PBE 6-311+G** CPCM(WATER) LARGEPRINT 
%tddft
    NRoots 30
    MaxDim 5
end
* xyz 0 1
  H           1.19151422162016     -0.25813859348236      0.54319398962599
  C           2.15903903438798     -0.13907899003812      0.02025065919149
  C           1.90544940787343      0.53325196983921     -1.33617663153351
  C           2.99516301887172      0.75434609251658      0.94548570367575
  O           3.33017255093379      0.22454790794023      2.15213225676272
  O           3.34424722137461      1.89301302051342      0.68685142802802
  C           2.77069259144781     -1.52919772434204     -0.12301104651832
  C           2.02233138137402     -2.67172635957151      0.19837725000306
  C           2.55758746655634     -3.96213088737008      0.01690630169513
  C           3.86420977747424     -4.10263839179076     -0.48763520517469
  C           4.62528732283781     -2.96947079208171     -0.78424062498914
  C           4.08166597990024     -1.69079539332154     -0.60911296987720
  C           1.74765886530852     -5.19658675187935      0.27219291233431
  O           1.92716483485594     -6.20775245452841     -0.42157901635019
  C           0.72526668749761     -5.20275622933976      1.36397577152338
  C           0.89239100264717     -4.45779320456997      2.54894445976802
  C          -0.05114236379790     -4.55149190410102      3.57831528600225
  C          -1.17958348302841     -5.36782375061727      3.42524155732674
  C          -1.35595866814667     -6.10854275977200      2.24588248384147
  C          -0.40302398854735     -6.03765625339610      1.22790179164283
  H           1.41810869117441      1.50913533165284     -1.20123507818073
  H           1.25012453575440     -0.10452847187372     -1.94677949408648
  H           2.84726332823952      0.68844377662391     -1.88320319508710
  H           3.00921563861093     -0.69805108784101      2.22285588655890
  H           0.99930952137761     -2.55231047902487      0.56448519438016
  H           4.27588367942252     -5.10404667384815     -0.63094781093658
  H           5.64674157703019     -3.07917211137035     -1.15580809677382
  H           4.68313065205270     -0.81049204974237     -0.85493571592845
  H           1.77527423120822     -3.82823866480233      2.67956710068817
  H           0.09501859771214     -3.98548868115499      4.50126186450750
  H          -1.92144181747534     -5.42978308073658      4.22522727704512
  H          -2.23740427420121     -6.74264540816468      2.12441567679960
  H          -0.52518722234721     -6.61797095032502      0.31044003403557
*
