# ORCA input file
# 
!PBE def2-TZVP Opt CPCM(WATER)
* xyz 0 1
   C        2.95021        -0.38900         1.26274
   C        2.52045        -1.27848         0.09338
   C        0.99553        -1.40741         0.07675
   C        3.03305        -0.73504        -1.25720
   C        4.54216        -0.63179        -1.32375
   C        5.34421        -1.77303        -1.21037
   C        6.73846        -1.66838        -1.22843
   C        7.36134        -0.42186        -1.38715
   C        6.55228         0.71875        -1.50569
   C        5.15995         0.61450        -1.47446
   C        8.87998        -0.34092        -1.48484
   C        9.28189         0.24772        -2.84195
   C        9.61173         0.40524        -0.37163
   O        8.87745         0.76600         0.70549
   O       10.81195         0.64384        -0.41318
   H        2.59304        -0.80141         2.21203
   H        2.55000         0.62512         1.15790
   H        4.04024        -0.31777         1.33342
   H        2.93334        -2.27988         0.25826
   H        0.51345        -0.43617        -0.07745
   H        0.63424        -1.81602         1.02656
   H        0.66784        -2.08146        -0.72144
   H        2.58341         0.24756        -1.45114
   H        2.69896        -1.38702        -2.07513
   H        4.88886        -2.75489        -1.10326
   H        7.32748        -2.57887        -1.13792
   H        6.99599         1.70432        -1.63567
   H        4.56054         1.51848        -1.56984
   H        9.27510        -1.36482        -1.43749
   H        8.93076         1.27903        -2.95691
   H        8.86386        -0.34431        -3.66356
   H       10.37078         0.26519        -2.96132
   H        7.93807         0.51129         0.66734
*
