# ORCA xyz input file 
# 
!PBE def2-TZVP CPCM(WATER) LARGEPRINT 
%tddft
    NRoots 30
    MaxDim 5
end
* xyz 0 1
  C           2.83540805566363     -0.16716374932814      1.25442291062108
  C           2.51650390205199     -1.19870432848276      0.16856291994092
  C           1.01123860691804     -1.47299707008435      0.09744794186506
  C           3.04256942945055     -0.75908906551513     -1.21842832752934
  C           4.54366327439428     -0.63309398658823     -1.30734461315832
  C           5.36064747666917     -1.77446975932275     -1.30035217662614
  C           6.75151069810837     -1.66803000855791     -1.36688793869233
  C           7.37511844516095     -0.41396155084995     -1.44991786285895
  C           6.56211866654186      0.73061373751898     -1.46006506070458
  C           5.17263964149456      0.61969067815513     -1.38823223577857
  C           8.88883439097684     -0.30212877904609     -1.55139007131647
  C           9.36136127563293      0.26177913977944     -2.89561278053569
  C           9.49329797369231      0.47082952636211     -0.37547923589054
  O           8.99141171580695      0.17767713287403      0.85059797662131
  O          10.39901672319166      1.27920827944078     -0.46296297046245
  H           2.47497702631140     -0.50884667871586      2.23633786916171
  H           2.34452463903941      0.79429895033861      1.03099878746783
  H           3.91648665530368      0.01847507887318      1.33647457515900
  H           3.02598135168487     -2.14379798920717      0.42952829191558
  H           0.46245389325268     -0.55842280359671     -0.18074900891706
  H           0.62511686706390     -1.81276454976459      1.07024783709015
  H           0.77960563212566     -2.24577013341028     -0.65118204484031
  H           2.57540896434723      0.20462921021876     -1.48201361396682
  H           2.69901825941789     -1.49712452057562     -1.96280793702686
  H           4.90104752458934     -2.76492354030376     -1.24674008575403
  H           7.36565745391396     -2.57240435600421     -1.36366610705857
  H           7.01868502856393      1.72195129255005     -1.52435726229279
  H           4.55998470205110      1.52483416203217     -1.39737085200625
  H           9.29789967171259     -1.32348153991641     -1.43880456653638
  H           8.99064222665460      1.28505847817906     -3.04709685775925
  H           8.98530346797028     -0.36729403180082     -3.71348282139266
  H          10.45775498593120      0.28212513369529     -2.94518921128665
  H           8.24071137431203     -0.44819235894683      0.75960453254841
*
