# ORCA xyz input file 
# 
!PBE def2-TZVP CPCM(WATER) LARGEPRINT 
%tddft
    NRoots 30
    MaxDim 5
end
* xyz 0 1
  H           1.90849154103350     -1.00078610551283      0.54728243215264
  C           1.96458424453916     -0.10655376142825     -0.09769954025137
  C           0.60028095946443      0.58938747603439     -0.10020622742411
  C           3.04771084775004      0.78528272489316      0.51494583048598
  O           4.25279188977225      0.19827250672470      0.72670537511355
  O           2.90153368044456      1.95406440150835      0.81857452151793
  C           2.38084275928818     -0.57503512416611     -1.48733670118663
  C           2.44155250936541     -1.94126473618933     -1.78540517999839
  C           2.77129344834591     -2.38667470868272     -3.07676854041456
  C           3.04958861730256     -1.44260499611058     -4.07866350593134
  C           3.01954641705804     -0.08125050346201     -3.78288892160856
  C           2.68306162250402      0.35168992148709     -2.49739621279759
  C           2.75927575427827     -3.83812846749779     -3.44064970582087
  O           2.44505827971842     -4.18349436697597     -4.58538897640011
  C           3.12584768984780     -4.86663814424640     -2.42030871280667
  C           4.07270063712393     -4.61662433157198     -1.41123218517840
  C           4.44252346673427     -5.63141247047588     -0.52639340242242
  C           3.85458235447271     -6.89576934707834     -0.62463024981803
  C           2.90665550787257     -7.15163437914898     -1.62334916286001
  C           2.55542303434964     -6.14839130102882     -2.52344837544921
  H           0.31199851800531      0.88015363978442      0.91887073428152
  H          -0.16219552621350     -0.09321772003552     -0.49886079352106
  H           0.61890578441780      1.49332257372678     -0.72393741865622
  H           4.23399163871574     -0.73865450421893      0.44188364971214
  H           2.19786110463728     -2.66645635601313     -1.00637157667600
  H           3.29876044497149     -1.78993136271222     -5.08246603564742
  H           3.25721226126736      0.65079604170605     -4.55670105629018
  H           2.65361190264765      1.42228294902957     -2.28013864138696
  H           4.54318551517656     -3.63520311675007     -1.33588366037570
  H           5.19198289843459     -5.43381450660196      0.24200057985273
  H           4.13634940637302     -7.68452337690937      0.07552411442815
  H           2.44458459054112     -8.13760801514403     -1.69886441308309
  H           1.82622619975985     -6.33993053293320     -3.31243804153967
*
