# ORCA xyz input file 
# 
!B3LYP 6-311+G** CPCM(WATER) LARGEPRINT 
%tddft
    NRoots 30
    MaxDim 5
end
* xyz 0 1
  C           2.70847719531914      0.91295846348268     -0.98335763777458
  C           2.42843818766481      0.05106867909835      0.25501323226275
  C           0.92988247073717      0.04175848010750      0.58751681562174
  C           2.94662705611851     -1.39927166261664      0.08655351660641
  C           4.44786171621821     -1.52103765038995     -0.05920518275905
  C           5.29127247572370     -1.33993738586045      1.04430771309684
  C           6.67691913207298     -1.43299354405479      0.91699264413961
  C           7.26692653903186     -1.71514755941786     -0.32002503962111
  C           6.42858264972115     -1.90578176524760     -1.42497331392104
  C           5.04395207622251     -1.80890448922586     -1.29396457712147
  C           8.78361181364287     -1.84444457160080     -0.44758367922728
  C           9.23440156552976     -3.27496491244299     -0.77251495039020
  C           9.32978582860787     -0.83989708015408     -1.46326495132012
  O           9.11597620077336      0.46594199537036     -1.18551907936947
  O           9.93383505905182     -1.12716482337712     -2.47108283236226
  H           2.35713803600074      1.93793836487955     -0.82910615500317
  H           2.18973594888458      0.50949800413775     -1.86088677015950
  H           3.77621787245107      0.95600724297378     -1.21528537146439
  H           2.96080691674747      0.49414134159859      1.10675836241270
  H           0.35308269400413     -0.40740212376061     -0.22923561155451
  H           0.55609557890248      1.05910073791412      0.73957154510830
  H           0.72754372730946     -0.53256829884212      1.49707301004315
  H           2.45852038972051     -1.84748221510591     -0.78655058769262
  H           2.62746574682708     -1.97835291105156      0.96064604765760
  H           4.86117501239729     -1.12752227619257      2.01858423770648
  H           7.30603138495408     -1.29021024592280      1.79033803209114
  H           6.85415736024302     -2.13213725045756     -2.39788719293161
  H           4.41598479367423     -1.96161247463647     -2.16629664022874
  H           9.21841723129094     -1.55174649503516      0.51563921640896
  H           8.83533270554198     -3.60738863418278     -1.73317615831914
  H           8.87539636990261     -3.95400146393516      0.00399411157564
  H          10.32403729581458     -3.33939836862201     -0.81250154970865
  H           8.61690096889783      0.57687489257019     -0.36174120380242
*
