# ORCA xyz input file 
# 
!TPSS def2-TZVP CPCM(WATER) LARGEPRINT 
%tddft
    NRoots 30
    MaxDim 5
end
* xyz 0 1
  C           2.83406138901920     -0.16912873742357      1.25862023356598
  C           2.51580415024553     -1.20255386219558      0.16932217667436
  C           1.00624169919545     -1.47437200327137      0.09711520968192
  C           3.04085120183608     -0.75907072922629     -1.22081731070987
  C           4.54568457538176     -0.63411472390331     -1.30752389310322
  C           5.36219964108162     -1.77421161758213     -1.29904633822165
  C           6.75191218857886     -1.66675004677440     -1.36543401881216
  C           7.37363805917179     -0.41334135137086     -1.44949600467988
  C           6.56115115541311      0.72998892171240     -1.46184106875241
  C           5.17271459134103      0.61798616502353     -1.39063585479352
  C           8.89008409026848     -0.30532361333553     -1.55161721439126
  C           9.36569153489922      0.25974128274809     -2.89922564742893
  C           9.49494504473329      0.47569340686493     -0.37981042759187
  O           8.98936510464289      0.19555559513228      0.84977396747027
  O          10.40207518500235      1.28006736735291     -0.46953228250527
  H           2.47204450811779     -0.51251737517966      2.23454238580904
  H           2.34653867665523      0.78853688166171      1.03479003296258
  H           3.91155707072200      0.01133689348894      1.34065418444748
  H           3.02145293593862     -2.14359210246835      0.42854533062300
  H           0.46216339933165     -0.56105979411981     -0.17584262837976
  H           0.62434931091695     -1.81732604976166      1.06563741323317
  H           0.77747979288930     -2.24143979317113     -0.65191802714990
  H           2.57879024226212      0.20201720475802     -1.48094632002183
  H           2.69942318305991     -1.49406623100353     -1.96178123215421
  H           4.90644937207164     -2.76080042129354     -1.24430588113978
  H           7.36335890421030     -2.56681671144376     -1.36083261110235
  H           7.01428321925221      1.71716335414836     -1.52726887361491
  H           4.56291634073457      1.51892675195818     -1.40244917375753
  H           9.29629788495111     -1.32122191487656     -1.43791046586095
  H           8.99611350241214      1.27869098991967     -3.04839141464407
  H           8.99012253225755     -0.36922042624812     -3.71134083411980
  H          10.45785780643777      0.27729007133228     -2.94371326081064
  H           8.23898170696834     -0.42755738145214      0.76676984927801
*
