# ORCA input file
# 
!PBE STO-3G Opt CPCM(WATER)
* xyz 0 1
   O        3.20532         0.77222        -3.48165
   C        3.01992        -0.42363        -2.87260
   O        2.60439        -1.40765        -3.47515
   C        3.32048        -0.40706        -1.39156
   C        4.77373        -0.12881        -1.08244
   C        5.66943        -1.21342        -1.10651
   C        7.03233        -1.02123        -0.89021
   C        7.51453         0.25274        -0.62393
   C        6.63498         1.33431        -0.58478
   C        5.26576         1.17391        -0.86041
   N        4.37299         2.29124        -0.86707
   C        4.78516         3.66554        -0.98266
   C        5.63181         4.12934        -2.01264
  Cl        6.08405         3.13842        -3.35906
   C        6.11423         5.44479        -2.01214
   C        5.70652         6.34622        -1.03224
   C        4.79176         5.94154        -0.06385
   C        4.33591         4.61788        -0.04136
  Cl        3.21047         4.17011         1.19560
   H        3.58943         1.44889        -2.88309
   H        3.04405        -1.38942        -0.98093
   H        2.64728         0.30494        -0.90399
   H        5.30989        -2.22054        -1.31624
   H        7.71565        -1.86518        -0.93248
   H        8.57673         0.41196        -0.45771
   H        7.04962         2.31347        -0.36106
   H        3.79458         2.21395        -0.02113
   H        6.80603         5.77305        -2.78574
   H        6.08452         7.36622        -1.03898
   H        4.44479         6.65940         0.67650
*
