# ORCA xyz input file 
# 
!PBE STO-3G CPCM(WATER) LARGEPRINT 
%tddft
    NRoots 30
    MaxDim 5
end
* xyz 0 1
  O           3.04488740681996      1.36772895334793     -3.17402691300511
  C           2.90849063007624      0.00083048707156     -2.92134625699026
  O           2.43034336752008     -0.79489187886547     -3.78234882638485
  C           3.35380623981341     -0.48832836301486     -1.44625584640507
  C           4.82856294487282     -0.23706290153335     -1.10957981368317
  C           5.75176743279067     -1.31122328619688     -1.00125399903064
  C           7.11135305196669     -1.08145724114358     -0.69107236008156
  C           7.57669180854948      0.23505721220210     -0.47037173417914
  C           6.68173692600965      1.32534273064966     -0.56551337972468
  C           5.32643288194022      1.08704860059982     -0.89129344411170
  N           4.32017263353475      2.19841198757204     -1.05336913573106
  C           4.83430552587314      3.57809975231273     -1.07500259236804
  C           5.64361187575243      4.09307716227243     -2.13579869589593
  Cl          6.15345884038683      2.99349881546762     -3.47592920278551
  C           6.04564996790506      5.45004594089940     -2.17410619105940
  C           5.61920905602465      6.33528946920158     -1.15640932644034
  C           4.79303321797935      5.87658615428946     -0.10298923216671
  C           4.41737805264326      4.51512926116164     -0.07694366374436
  Cl          3.35384655851048      3.89314990634100      1.25428317095389
  H           3.53144576568445      1.77586340645090     -2.29689512499212
  H           3.14676623016281     -1.57502475835581     -1.38540305901626
  H           2.69918299609937      0.02794880233155     -0.70953358371736
  H           5.38858515460090     -2.34187467914290     -1.16331819177534
  H           7.80883600743657     -1.93427245696433     -0.61545386246905
  H           8.63586973393915      0.41903300139398     -0.21859259518878
  H           7.03198113734832      2.35673040895894     -0.38648669651046
  H           3.64648532214151      2.16553603715907     -0.22128300643711
  H           6.67806251802686      5.80636726952940     -3.00652195592887
  H           5.92705772879852      7.39572491390597     -1.18869098159927
  H           4.44732898679225      6.56083529209836      0.69199650046827
*
