# ORCA xyz input file 
# 
!TPSS def2-TZVP CPCM(WATER) LARGEPRINT 
%tddft
    NRoots 30
    MaxDim 5
end
* xyz 0 1
  H           1.92268360830042     -1.00045489383912      0.54511938558163
  C           1.97164996119056     -0.11056858377013     -0.09626648338072
  C           0.60282704075843      0.58599090042046     -0.09060610926721
  C           3.05303096672933      0.79046554140211      0.50731069821570
  O           4.26111357642353      0.20898784962070      0.72814371203146
  O           2.90731016687939      1.96183519029969      0.79564458785193
  C           2.38376845760786     -0.57574387435884     -1.49126011912316
  C           2.45232346244220     -1.94090719101681     -1.78623107056531
  C           2.77705361385476     -2.38526801916855     -3.07800322721188
  C           3.04219431509417     -1.44194441608761     -4.08276846011208
  C           3.00353974584798     -0.08164192713590     -3.78952677909639
  C           2.67197963566009      0.35078648774277     -2.50358322509344
  C           2.77238907021540     -3.83645270922225     -3.43951792483715
  O           2.46781387946383     -4.18175312259548     -4.58708398490042
  C           3.13084213937899     -4.86681366905842     -2.41963902511989
  C           4.06143913469627     -4.61632798150982     -1.39733416255881
  C           4.42206769208606     -5.63194253747205     -0.51148965689897
  C           3.84135254379154     -6.89720989519482     -0.62292112960902
  C           2.90991174439635     -7.15354015256184     -1.63547802692402
  C           2.56770101003007     -6.14951856709858     -2.53612707827290
  H           0.32635316978802      0.87645175820989      0.92700782677890
  H          -0.15621474670258     -0.09846858369737     -0.48009968961144
  H           0.61855851362169      1.48358435160301     -0.71520710104052
  H           4.24854522903335     -0.72931528241282      0.45720536387900
  H           2.21832690702939     -2.66328807790695     -1.00891805788556
  H           3.28723557617597     -1.78747422747605     -5.08259058889797
  H           3.22916120049063      0.64762204675619     -4.56252650067314
  H           2.63556383477998      1.41647330833193     -2.28946774760533
  H           4.52516471974544     -3.63807142768984     -1.31309332823805
  H           5.15604796061231     -5.43509360178540      0.26491016929176
  H           4.11496769986560     -7.68367552601340      0.07525017798124
  H           2.45559868903799     -8.13680455518499     -1.72063832951772
  H           1.85351948167489     -6.34026861212966     -3.33185411517047
*
