# ORCA xyz input file 
# 
!B3LYP STO-3G CPCM(WATER) LARGEPRINT 
%tddft
    NRoots 30
    MaxDim 5
end
* xyz 0 1
  C           2.76173437144993      0.92481352105540     -0.99484176398702
  C           2.42499041754253      0.07657940733035      0.27081123738955
  C           0.89229254054445      0.10933421071495      0.56744827788407
  C           2.91238522818840     -1.41354604615963      0.11619403921166
  C           4.44403481255006     -1.54041959841326     -0.02231206108608
  C           5.28756782999480     -1.35244186176928      1.09914036257754
  C           6.68587993885873     -1.45547758062419      0.97753089046804
  C           7.28627736323250     -1.75186646743228     -0.27042114986153
  C           6.44266587693938     -1.94192255410045     -1.39364597315601
  C           5.04552773050446     -1.83642696473301     -1.26986042348497
  C           8.82435166363478     -1.87463065265379     -0.39353490804210
  C           9.28689901454817     -3.28892138227926     -0.86871145623079
  C           9.43554004200491     -0.76232192492028     -1.36672263608680
  O           8.76717067544167      0.49066902430743     -1.36114325060157
  O          10.45141260095998     -0.91694658937411     -2.07990084842173
  H           2.44251010285496      1.96874854176834     -0.85131262460849
  H           2.24356297443157      0.52151531375035     -1.87881245638645
  H           3.84453098026933      0.91522000351320     -1.19205820470949
  H           2.95517051335356      0.51793627169092      1.13667583282311
  H           0.32749090048185     -0.33137369738818     -0.26885145596039
  H           0.55094770261289      1.14682555863044      0.70788232584973
  H           0.66205179390413     -0.46023590958367      1.48125255668209
  H           2.42686931726925     -1.86131212977724     -0.76804668956059
  H           2.58226275354647     -1.97885869448681      1.00659084895219
  H           4.84368624730593     -1.12739562516219      2.07902203703257
  H           7.32263839777028     -1.30845752044674      1.86148388727781
  H           6.88499515161556     -2.17178867593029     -2.37319949921406
  H           4.40970599764734     -1.99002004756290     -2.15301042236104
  H           9.26174273378253     -1.68034567212894      0.60628284246486
  H           8.81658657089454     -3.55069476572675     -1.82855269424708
  H           9.01392949463091     -4.05001089329200     -0.12159345205066
  H          10.38008102956345     -3.29377266868807     -1.00173657975360
  H           7.96309723167061      0.33346606987198     -0.74321658880274
*
