# ORCA input file
# 
!B3LYP STO-3G Opt CPCM(WATER)
* xyz 0 1
   C        2.84251         1.01411        -0.69096
   C        2.43769        -0.00906         0.37461
   C        0.91575        -0.01278         0.53493
   C        2.94670        -1.42385         0.03470
   C        4.45251        -1.51309        -0.08791
   C        5.27723        -1.21555         1.00286
   C        6.66758        -1.27499         0.88204
   C        7.26810        -1.65638        -0.32751
   C        6.43770        -1.95835        -1.41751
   C        5.04670        -1.88539        -1.29902
   C        8.78387        -1.78842        -0.41169
   C        9.16418        -3.23508        -0.74382
   C        9.51321        -0.83979        -1.36214
   O        8.78146         0.15695        -1.90506
   O       10.71031        -0.94017        -1.60515
   H        2.47037         2.01046        -0.43077
   H        2.43869         0.74424        -1.67252
   H        3.93059         1.08959        -0.77972
   H        2.86857         0.31218         1.33176
   H        0.41895        -0.36301        -0.37626
   H        0.54619         0.99434         0.75501
   H        0.61306        -0.66604         1.36024
   H        2.47811        -1.76575        -0.89972
   H        2.62532        -2.13383         0.80693
   H        4.84079        -0.93717         1.96023
   H        7.27498        -1.03913         1.75499
   H        6.86200        -2.26456        -2.37291
   H        4.42920        -2.12815        -2.16163
   H        9.19524        -1.55445         0.58086
   H        8.80273        -3.53129        -1.73562
   H        8.74197        -3.93027        -0.01021
   H       10.25123        -3.36973        -0.74622
   H        7.84710         0.18033        -1.63398
*
