# ORCA input file
# 
!B3LYP STO-3G Opt CPCM(WATER)
* xyz 0 1
   C        9.00560       -17.17275         8.32021
   C        9.59486       -16.14698         7.39602
   O        9.24363       -14.97300         7.34646
   O       10.48286       -16.72786         6.54906
   C       10.96873       -15.89255         5.48865
   C        9.89630       -15.54012         4.44682
   O       10.45899       -14.62568         3.49971
   C        9.49758       -14.14712         2.56170
   O       10.09312       -13.17402         1.72416
   C       10.68267       -12.03116         2.36721
   C       11.14218       -11.16347         1.16413
   O       12.25435       -11.74007         0.45604
   C       11.49047        -9.70920         1.49658
   N       11.73334        -9.02179         0.17561
   C       10.39577        -9.11540         2.43190
   O       10.67137        -7.78581         2.88992
   C       10.85028        -6.80930         1.86012
   C        9.59070        -6.68809         0.98823
   O        9.26399        -7.89122         0.25651
   C        9.75209        -5.62710        -0.08724
   N        8.47159        -5.65331        -0.86683
   C       10.22547        -4.28804         0.53608
   O       10.59191        -3.34089        -0.48675
   C        9.53604        -3.01539        -1.39418
   C        8.32244        -2.46228        -0.65168
   O        8.65742        -1.35777         0.21542
   C        7.19579        -2.05638        -1.59639
   N        6.13294        -1.49055        -0.69765
   C        7.78321        -1.13019        -2.71446
   O        6.83566        -0.79533        -3.73064
   C        5.63538        -0.14955        -3.29254
   C        5.91036         1.22535        -2.63271
   O        6.69802         1.14175        -1.42800
   C        4.59391         1.90662        -2.23947
   N        4.84979         3.16783        -1.53762
   C        3.69113         2.00000        -3.49489
   O        2.42697         2.54847        -3.15521
   O        3.46990         0.70962        -4.05286
   C        4.66818         0.04085        -4.48385
   C        4.21756        -1.30083        -5.10093
   O        5.30635        -2.05181        -5.65863
   C        5.58608        -3.24180        -5.06201
   C        6.79016        -3.88883        -5.67918
   O        4.96796        -3.73454        -4.12640
   O        8.88337        -1.78261        -3.37964
   C        9.99201        -2.06373        -2.49617
   C       11.09039        -2.72446        -3.34483
   O       11.53884        -1.80606        -4.34303
   O       11.38493        -4.49099         1.35085
   C       11.20170        -5.42289         2.43333
   C       12.52594        -5.43933         3.22349
   O       12.46145        -6.26449         4.39562
   C       13.19839        -7.40838         4.37309
   C       12.97256        -8.21747         5.61429
   O       13.93327        -7.77789         3.46594
   O       10.29668        -9.94473         3.59060
   C        9.72193       -11.22117         3.27951
   C        9.47412       -11.81945         4.67313
   O        8.41288       -11.14019         5.32797
   C        8.89580       -15.29282         1.71676
   N        7.80738       -14.82692         0.82596
   C        8.32211       -16.35461         2.67221
   O        7.83436       -17.46951         1.91266
   C        9.34744       -16.78464         3.73226
   O        8.72176       -17.68095         4.65031
   H        9.13072       -16.85519         9.35661
   H        9.49731       -18.14261         8.19345
   H        7.94655       -17.29515         8.07802
   H       11.79383       -16.42679         5.00206
   H       11.42076       -14.98636         5.91286
   H        9.06654       -15.04150         4.95876
   H        8.64580       -13.68466         3.06529
   H       11.57107       -12.34893         2.92665
   H       10.31131       -11.16186         0.43984
   H       12.99545       -11.81373         1.08235
   H       12.44526        -9.68061         2.03685
   H       11.05885        -9.37699        -0.51066
   H       12.61867        -9.41720        -0.16397
   H        9.40295        -9.13668         1.98245
   H       11.71278        -7.07187         1.25056
   H        8.72674        -6.47610         1.63217
   H       10.11673        -8.16255        -0.15721
   H       10.52740        -5.94918        -0.79643
   H        7.68633        -5.64026        -0.21268
   H        8.41254        -6.61266        -1.24129
   H        9.46344        -3.85709         1.19244
   H        9.23968        -3.90127        -1.95431
   H        7.91248        -3.21612         0.02621
   H        9.12918        -0.67484        -0.29463
   H        6.78798        -2.95254        -2.08278
   H        6.62553        -1.18438         0.15639
   H        5.57839        -2.28642        -0.36273
   H        8.20768        -0.21240        -2.30773
   H        5.09983        -0.79786        -2.59906
   H        6.48800         1.84923        -3.32735
   H        6.25000         0.47352        -0.86686
   H        4.09379         1.25923        -1.49988
   H        5.25737         3.84916        -2.18897
   H        5.61376         2.99662        -0.85810
   H        4.14090         2.64826        -4.25194
   H        2.28755         2.37046        -2.21016
   H        5.16058         0.63048        -5.26744
   H        3.52206        -1.09485        -5.92335
   H        3.63426        -1.87346        -4.36884
   H        7.12871        -3.33504        -6.55896
   H        6.53396        -4.90468        -5.99242
   H        7.59979        -3.91364        -4.94541
   H       10.37989        -1.11827        -2.10124
   H       10.70792        -3.61192        -3.86349
   H       11.95287        -3.01826        -2.73984
   H       10.73505        -1.35082        -4.65943
   H       10.40218        -5.07212         3.09908
   H       12.74671        -4.42129         3.56556
   H       13.35849        -5.70714         2.56130
   H       12.30997        -7.69642         6.31048
   H       13.92982        -8.39271         6.11189
   H       12.51028        -9.16841         5.33749
   H        8.75199       -11.07759         2.78208
   H       10.36341       -11.74752         5.30450
   H        9.15702       -12.85052         4.67733
   H        8.62096       -10.18993         5.25255
   H        9.67082       -15.73796         1.08134
   H        7.06150       -14.41504         1.38693
   H        7.38520       -15.66151         0.40857
   H        7.44146       -15.94820         3.18962
   H        8.58390       -18.06355         1.73139
   H       10.15937       -17.33555         3.24414
   H        8.15165       -17.15585         5.23725
*
