# ORCA xyz input file 
# 
!PBE STO-3G CPCM(WATER) LARGEPRINT 
%tddft
    NRoots 30
    MaxDim 5
end
* xyz 0 1
  H           1.01941858032445     -0.27735004340889      0.22048324247669
  C           2.08707054586331     -0.12976314230127     -0.06283772850604
  C           2.13853587609180      0.73615389514027     -1.35988160989711
  C           2.74730410706076      0.69753236518141      1.15063291098798
  O           3.35541655872968     -0.09890697224766      2.16528054570354
  O           2.72027872192588      1.95230977977141      1.25924260295559
  C           2.72701480517576     -1.52713609175848     -0.22386980112516
  C           1.99337534471182     -2.69366374598183      0.12896680355171
  C           2.55969777017371     -3.98981306669477     -0.01295501848809
  C           3.87653984360273     -4.11576978468726     -0.53680481571061
  C           4.62166460619619     -2.96545926132920     -0.87734423255512
  C           4.05460049949361     -1.68070669217790     -0.72136870006983
  C           1.76455563397912     -5.28101437625324      0.28965898642476
  O           1.97480360726219     -6.34769183158615     -0.37264348043151
  C           0.71295921929111     -5.23748353170208      1.41876034910618
  C           0.83523905235923     -4.38603034219409      2.55232093565270
  C          -0.12264565297675     -4.43883341096666      3.59017707658480
  C          -1.21396508035592     -5.33596583244675      3.50688435341234
  C          -1.33896561411003     -6.19561354785291      2.38816491855158
  C          -0.37652255415421     -6.15245118977850      1.35724357415104
  H           1.75305060862546      1.74864902859872     -1.13357388686365
  H           1.51602638385834      0.28238349838977     -2.15355201702974
  H           3.17531260099024      0.83162732644814     -1.73177284550011
  H           3.25632772877301     -1.05982898359935      1.78015148050545
  H           0.95840486291252     -2.58691513735074      0.50101592288583
  H           4.30483422198363     -5.12650405392919     -0.66775317413247
  H           5.64923743719032     -3.06821635751232     -1.26982471794102
  H           4.64349831462568     -0.78535490737445     -0.99004799361398
  H           1.69309963954206     -3.69471070070090      2.62885576135700
  H          -0.01662916258586     -3.77852924535136      4.46942886297269
  H          -1.96406355490343     -5.37058030832166      4.31728845282451
  H          -2.18659900114253     -6.90116474608105      2.32467429091106
  H          -0.45270595051393     -6.82676858994101      0.48423895084900
*
