# ORCA xyz input file 
# 
!B3LYP 6-311+G** CPCM(WATER) LARGEPRINT 
%tddft
    NRoots 30
    MaxDim 5
end
* xyz 0 1
  H           1.20916354970205     -0.27035415592334      0.53236958212450
  C           2.16987160708451     -0.15024163870601      0.02021309883114
  C           1.92609467317182      0.53710351869223     -1.33048241912207
  C           3.04194017687570      0.70978284696522      0.93754064646058
  O           3.05051572558054      0.37068992188826      2.24532329050968
  O           3.71527545511632      1.64627865495713      0.57475156283770
  C           2.78270270904405     -1.54217099210399     -0.13597521639044
  C           2.03695203243242     -2.67760380750582      0.19014197897420
  C           2.56082390150186     -3.96405023778255     -0.00024449608659
  C           3.85588279367632     -4.10948527872067     -0.51572196840731
  C           4.61470008260653     -2.98320155516944     -0.81724042313066
  C           4.08066100573645     -1.70731216973079     -0.63467064284523
  C           1.74796230772591     -5.19433695619103      0.26109917673319
  O           1.91199793278480     -6.19322886199225     -0.43427424984619
  C           0.73835989462744     -5.20676017937870      1.36441979678682
  C           0.92953931957488     -4.49124446063240      2.55570101755003
  C          -0.00099004419473     -4.58805063542895      3.58938274404340
  C          -1.13962706481807     -5.37914010124814      3.43423032469606
  C          -1.34006558304723     -6.09058344291000      2.24787624464040
  C          -0.40058427914478     -6.01564079434720      1.22481744750823
  H           1.45274509287563      1.51113864757865     -1.18751882503815
  H           1.26592098261546     -0.08346889091949     -1.94032590788587
  H           2.86172559944641      0.68477834890182     -1.87329068591835
  H           2.46284116990736     -0.37851710192227      2.42611565439767
  H           1.02824807162134     -2.55571305962532      0.56766859536334
  H           4.26112212570154     -5.10302979143398     -0.66614883641848
  H           5.62341369719709     -3.09523471228893     -1.19875856086454
  H           4.68050560984572     -0.83848186351654     -0.88546745690816
  H           1.81456100514089     -3.88071987769297      2.68844989514217
  H           0.16301680965824     -4.04515013825699      4.51351876686153
  H          -1.86837237538989     -5.44367113537862      4.23492592163883
  H          -2.22606966191745     -6.70350690686501      2.12455863403512
  H          -0.54466432273917     -6.57244319331179      0.30625530972743
*
