# ORCA input file
# 
!B3LYP 6-311+G** Opt CPCM(WATER)
* xyz 0 1
   H        1.09662        -0.20425         0.32676
   C        2.13797        -0.11108        -0.01052
   C        2.12649         0.62804        -1.35353
   C        2.82666         0.75101         1.05036
   O        3.42837         0.07530         2.05584
   O        2.79236         1.97380         1.05318
   C        2.71761        -1.51246        -0.17817
   C        1.93400        -2.64563         0.11349
   C        2.46764        -3.93628        -0.02637
   C        3.77114        -4.09904        -0.50532
   C        4.55448        -2.98406        -0.79480
   C        4.03583        -1.70072        -0.62371
   C        1.68733        -5.16375         0.28429
   O        1.87299        -6.17087        -0.39524
   C        0.70964        -5.21669         1.40278
   C        0.85415        -4.43205         2.55380
   C       -0.08941        -4.51477         3.57938
   C       -1.16344        -5.39791         3.47203
   C       -1.29213        -6.20776         2.34434
   C       -0.35568        -6.12155         1.31302
   H        1.60784         1.58944        -1.26613
   H        1.61662         0.04215        -2.12585
   H        3.14163         0.84360        -1.70681
   H        3.41398        -0.89696         1.96534
   H        0.90004        -2.51911         0.43007
   H        4.17798        -5.09810        -0.65507
   H        5.56968        -3.11822        -1.16231
   H        4.67199        -0.84709        -0.85704
   H        1.70284        -3.76706         2.68065
   H        0.01844        -3.89919         4.46945
   H       -1.89326        -5.46596         4.27487
   H       -2.11824        -6.91083         2.26952
   H       -0.45599        -6.76552         0.44094
*
