# ORCA xyz input file 
# 
!B3LYP def2-TZVP CPCM(WATER) LARGEPRINT 
%tddft
    NRoots 30
    MaxDim 5
end
* xyz 0 1
  C           2.69673957166620      0.91335947487072     -0.97848224321492
  C           2.42513310857878      0.04575603577367      0.25300898337573
  C           0.93099400343771      0.02544136626309      0.58735459552690
  C           2.95163181205203     -1.39683777271726      0.07942481085717
  C           4.44995586498022     -1.51246463602311     -0.06536622115105
  C           5.29127686929775     -1.33110727437880      1.03538053745774
  C           6.67325306561124     -1.42313295599987      0.90928442103526
  C           7.26311266643899     -1.70699222973307     -0.32337680928537
  C           6.42727786454840     -1.89489523906742     -1.42597521380530
  C           5.04612912817835     -1.79814642635396     -1.29630088999600
  C           8.77686457516021     -1.84016313639458     -0.44831571999229
  C           9.22241352074790     -3.27203128545323     -0.75724271421132
  C           9.31582669612938     -0.85302653371951     -1.48005069895109
  O           9.18900858928947      0.45425336779176     -1.17345122594757
  O           9.83395235382530     -1.15628767734103     -2.52740254385971
  H           2.34051432924624      1.93383288106765     -0.81817278698069
  H           2.17922332073406      0.51241807629552     -1.85565241610446
  H           3.76197421638908      0.96383785958362     -1.21229591048356
  H           2.95502297665890      0.48842045621879      1.10445674135943
  H           0.35651507169499     -0.42274555145734     -0.22921526684347
  H           0.55154517601393      1.03797036155425      0.74477097839406
  H           0.73450718666253     -0.55392698731223      1.49286246984247
  H           2.46703357812532     -1.84370286224376     -0.79431135911010
  H           2.63463334734258     -1.97944894771590      0.95000513924500
  H           4.86133680532295     -1.11924814066230      2.00823225939765
  H           7.30092496799584     -1.28038761541420      1.78182903101035
  H           6.85308493316262     -2.12067527391748     -2.39719779352839
  H           4.41990574548490     -1.95006798240254     -2.16823566284251
  H           9.21118358565929     -1.53856769030569      0.51020493671211
  H           8.81869572057256     -3.61421914613912     -1.71042300313665
  H           8.86802289989434     -3.94124440576273      0.02764220572804
  H          10.31029726010371     -3.33783004399660     -0.80300268736313
  H           8.76259918899406      0.57777993509267     -0.31115594313430
*
