# ORCA input file
# 
!PBE def2-TZVP Opt CPCM(WATER)
* xyz 0 1
   C       -0.49838         1.45672         0.09896
   C        0.83636         1.86187         0.13987
   C        1.85850         0.90964         0.07692
   C        1.52705        -0.44553         0.10327
   C        0.19399        -0.85911         0.06588
   C       -0.81311         0.09845         0.04328
  Cl       -2.45804        -0.38995        -0.04430
   O        2.48623        -1.41804         0.15924
   O        3.19540         1.23915         0.00408
   C        3.55840         2.36555        -0.71342
   C        4.59924         3.16189        -0.21840
   C        4.97545         4.33057        -0.88996
   C        4.31222         4.69779        -2.05616
   C        3.30213         3.89395        -2.58058
   C        2.94419         2.71337        -1.92599
  Cl        4.74503         6.15332        -2.86475
  Cl        5.43890         2.74189         1.23085
   H       -1.28677         2.20447         0.09898
   H        1.06264         2.92223         0.19335
   H       -0.04081        -1.92109         0.05235
   H        3.32941        -0.97731         0.37369
   H        5.77651         4.95189        -0.49678
   H        2.78688         4.18033        -3.49530
   H        2.16802         2.08687        -2.36091
*